c Generated map
c Size: 15 * 15, weights in range: 1 to 10, walls: True, with ratio 0.05
c dim 1 of 4
c
p sp 225 380
c graph contains 225 nodes and 380 arcs
c
a 1 16 3
a 16 1 3
a 1 2 5
a 2 1 5
a 2 17 9
a 17 2 9
a 2 3 5
a 3 2 5
a 3 18 5
a 18 3 5
a 3 4 2
a 4 3 2
a 4 19 7
a 19 4 7
a 4 5 7
a 5 4 7
a 5 20 2
a 20 5 2
a 5 6 8
a 6 5 8
a 6 21 1
a 21 6 1
a 6 7 2
a 7 6 2
a 7 22 10
a 22 7 10
a 9 10 2
a 10 9 2
a 10 25 6
a 25 10 6
a 10 11 10
a 11 10 10
a 11 26 6
a 26 11 6
a 11 12 7
a 12 11 7
a 12 27 7
a 27 12 7
a 12 13 4
a 13 12 4
a 13 28 4
a 28 13 4
a 13 14 7
a 14 13 7
a 14 29 3
a 29 14 3
a 14 15 2
a 15 14 2
a 16 31 5
a 31 16 5
a 16 17 1
a 17 16 1
a 17 32 4
a 32 17 4
a 17 18 8
a 18 17 8
a 18 33 1
a 33 18 1
a 18 19 4
a 19 18 4
a 19 34 1
a 34 19 1
a 19 20 7
a 20 19 7
a 20 35 6
a 35 20 6
a 20 21 2
a 21 20 2
a 21 36 2
a 36 21 2
a 21 22 7
a 22 21 7
a 22 37 6
a 37 22 6
a 22 23 7
a 23 22 7
a 23 38 6
a 38 23 6
a 25 40 8
a 40 25 8
a 25 26 5
a 26 25 5
a 26 41 3
a 41 26 3
a 26 27 6
a 27 26 6
a 27 42 8
a 42 27 8
a 27 28 7
a 28 27 7
a 28 43 8
a 43 28 8
a 28 29 9
a 29 28 9
a 29 44 2
a 44 29 2
a 31 46 10
a 46 31 10
a 31 32 8
a 32 31 8
a 32 47 2
a 47 32 2
a 32 33 8
a 33 32 8
a 33 48 2
a 48 33 2
a 33 34 3
a 34 33 3
a 34 49 9
a 49 34 9
a 34 35 8
a 35 34 8
a 35 36 1
a 36 35 1
a 36 51 3
a 51 36 3
a 36 37 7
a 37 36 7
a 37 52 7
a 52 37 7
a 37 38 4
a 38 37 4
a 38 53 3
a 53 38 3
a 38 39 6
a 39 38 6
a 39 54 1
a 54 39 1
a 39 40 9
a 40 39 9
a 40 55 2
a 55 40 2
a 40 41 8
a 41 40 8
a 41 56 7
a 56 41 7
a 41 42 8
a 42 41 8
a 42 57 8
a 57 42 8
a 42 43 10
a 43 42 10
a 43 58 4
a 58 43 4
a 43 44 7
a 44 43 7
a 44 59 9
a 59 44 9
a 44 45 1
a 45 44 1
a 45 60 10
a 60 45 10
a 46 61 4
a 61 46 4
a 46 47 3
a 47 46 3
a 47 62 8
a 62 47 8
a 47 48 3
a 48 47 3
a 48 63 2
a 63 48 2
a 48 49 8
a 49 48 8
a 51 66 1
a 66 51 1
a 51 52 9
a 52 51 9
a 52 67 1
a 67 52 1
a 52 53 6
a 53 52 6
a 53 68 7
a 68 53 7
a 53 54 1
a 54 53 1
a 54 69 6
a 69 54 6
a 54 55 7
a 55 54 7
a 55 70 6
a 70 55 6
a 55 56 8
a 56 55 8
a 56 71 3
a 71 56 3
a 56 57 2
a 57 56 2
a 57 72 10
a 72 57 10
a 57 58 6
a 58 57 6
a 58 73 10
a 73 58 10
a 58 59 10
a 59 58 10
a 59 74 1
a 74 59 1
a 59 60 5
a 60 59 5
a 60 75 4
a 75 60 4
a 61 76 9
a 76 61 9
a 61 62 9
a 62 61 9
a 62 77 8
a 77 62 8
a 62 63 2
a 63 62 2
a 63 78 3
a 78 63 3
a 65 80 4
a 80 65 4
a 65 66 2
a 66 65 2
a 66 81 10
a 81 66 10
a 66 67 7
a 67 66 7
a 67 82 5
a 82 67 5
a 67 68 10
a 68 67 10
a 68 83 8
a 83 68 8
a 68 69 2
a 69 68 2
a 69 84 3
a 84 69 3
a 69 70 3
a 70 69 3
a 70 85 9
a 85 70 9
a 70 71 7
a 71 70 7
a 71 86 4
a 86 71 4
a 71 72 9
a 72 71 9
a 72 87 1
a 87 72 1
a 72 73 4
a 73 72 4
a 73 88 5
a 88 73 5
a 73 74 10
a 74 73 10
a 74 89 8
a 89 74 8
a 74 75 4
a 75 74 4
a 75 90 1
a 90 75 1
a 76 91 9
a 91 76 9
a 76 77 3
a 77 76 3
a 77 92 10
a 92 77 10
a 77 78 6
a 78 77 6
a 78 93 9
a 93 78 9
a 78 79 9
a 79 78 9
a 79 94 1
a 94 79 1
a 79 80 2
a 80 79 2
a 80 95 8
a 95 80 8
a 80 81 10
a 81 80 10
a 81 96 1
a 96 81 1
a 81 82 8
a 82 81 8
a 82 97 4
a 97 82 4
a 82 83 7
a 83 82 7
a 83 98 4
a 98 83 4
a 83 84 7
a 84 83 7
a 84 99 4
a 99 84 4
a 84 85 1
a 85 84 1
a 85 100 6
a 100 85 6
a 85 86 4
a 86 85 4
a 86 101 4
a 101 86 4
a 86 87 10
a 87 86 10
a 87 102 8
a 102 87 8
a 87 88 6
a 88 87 6
a 88 103 9
a 103 88 9
a 88 89 9
a 89 88 9
a 89 104 6
a 104 89 6
a 89 90 1
a 90 89 1
a 90 105 8
a 105 90 8
a 91 106 9
a 106 91 9
a 91 92 1
a 92 91 1
a 92 107 10
a 107 92 10
a 92 93 2
a 93 92 2
a 93 108 1
a 108 93 1
a 93 94 1
a 94 93 1
a 94 109 5
a 109 94 5
a 94 95 5
a 95 94 5
a 95 110 10
a 110 95 10
a 95 96 5
a 96 95 5
a 96 111 5
a 111 96 5
a 96 97 7
a 97 96 7
a 97 112 1
a 112 97 1
a 97 98 3
a 98 97 3
a 98 113 2
a 113 98 2
a 98 99 10
a 99 98 10
a 99 114 6
a 114 99 6
a 99 100 6
a 100 99 6
a 100 115 3
a 115 100 3
a 100 101 5
a 101 100 5
a 101 116 7
a 116 101 7
a 101 102 2
a 102 101 2
a 102 117 9
a 117 102 9
a 102 103 8
a 103 102 8
a 103 118 4
a 118 103 4
a 103 104 7
a 104 103 7
a 104 119 5
a 119 104 5
a 104 105 5
a 105 104 5
a 105 120 3
a 120 105 3
a 106 121 9
a 121 106 9
a 106 107 1
a 107 106 1
a 107 122 9
a 122 107 9
a 107 108 4
a 108 107 4
a 108 123 7
a 123 108 7
a 108 109 6
a 109 108 6
a 109 124 2
a 124 109 2
a 109 110 2
a 110 109 2
a 110 125 8
a 125 110 8
a 110 111 4
a 111 110 4
a 111 126 3
a 126 111 3
a 111 112 4
a 112 111 4
a 112 127 8
a 127 112 8
a 112 113 8
a 113 112 8
a 113 128 9
a 128 113 9
a 113 114 7
a 114 113 7
a 114 129 2
a 129 114 2
a 114 115 8
a 115 114 8
a 115 116 7
a 116 115 7
a 116 117 4
a 117 116 4
a 117 132 8
a 132 117 8
a 117 118 4
a 118 117 4
a 118 133 9
a 133 118 9
a 118 119 10
a 119 118 10
a 119 134 5
a 134 119 5
a 119 120 10
a 120 119 10
a 120 135 3
a 135 120 3
a 121 136 5
a 136 121 5
a 121 122 5
a 122 121 5
a 122 137 1
a 137 122 1
a 122 123 4
a 123 122 4
a 123 138 1
a 138 123 1
a 123 124 10
a 124 123 10
a 124 139 3
a 139 124 3
a 124 125 1
a 125 124 1
a 125 126 1
a 126 125 1
a 126 141 9
a 141 126 9
a 126 127 2
a 127 126 2
a 127 142 6
a 142 127 6
a 127 128 3
a 128 127 3
a 128 143 1
a 143 128 1
a 128 129 6
a 129 128 6
a 129 144 6
a 144 129 6
a 132 147 8
a 147 132 8
a 132 133 4
a 133 132 4
a 133 148 4
a 148 133 4
a 133 134 9
a 134 133 9
a 134 149 2
a 149 134 2
a 134 135 4
a 135 134 4
a 135 150 6
a 150 135 6
a 136 151 3
a 151 136 3
a 136 137 2
a 137 136 2
a 137 152 5
a 152 137 5
a 137 138 1
a 138 137 1
a 138 153 3
a 153 138 3
a 138 139 10
a 139 138 10
a 139 154 2
a 154 139 2
a 141 156 6
a 156 141 6
a 141 142 9
a 142 141 9
a 142 157 10
a 157 142 10
a 142 143 8
a 143 142 8
a 143 158 7
a 158 143 7
a 143 144 8
a 144 143 8
a 144 159 7
a 159 144 7
a 144 145 8
a 145 144 8
a 145 160 7
a 160 145 7
a 145 146 2
a 146 145 2
a 146 161 3
a 161 146 3
a 146 147 8
a 147 146 8
a 147 162 2
a 162 147 2
a 147 148 9
a 148 147 9
a 148 163 5
a 163 148 5
a 148 149 1
a 149 148 1
a 149 164 1
a 164 149 1
a 149 150 1
a 150 149 1
a 150 165 10
a 165 150 10
a 151 166 6
a 166 151 6
a 151 152 8
a 152 151 8
a 152 167 9
a 167 152 9
a 152 153 8
a 153 152 8
a 153 168 6
a 168 153 6
a 153 154 4
a 154 153 4
a 154 169 4
a 169 154 4
a 154 155 7
a 155 154 7
a 155 170 9
a 170 155 9
a 155 156 6
a 156 155 6
a 156 171 3
a 171 156 3
a 156 157 8
a 157 156 8
a 157 172 5
a 172 157 5
a 157 158 10
a 158 157 10
a 158 173 8
a 173 158 8
a 158 159 7
a 159 158 7
a 159 174 10
a 174 159 10
a 159 160 3
a 160 159 3
a 160 175 5
a 175 160 5
a 160 161 10
a 161 160 10
a 161 176 3
a 176 161 3
a 161 162 8
a 162 161 8
a 162 177 9
a 177 162 9
a 162 163 8
a 163 162 8
a 163 178 10
a 178 163 10
a 163 164 8
a 164 163 8
a 164 179 5
a 179 164 5
a 164 165 3
a 165 164 3
a 165 180 3
a 180 165 3
a 166 181 10
a 181 166 10
a 166 167 10
a 167 166 10
a 167 182 8
a 182 167 8
a 167 168 6
a 168 167 6
a 168 183 6
a 183 168 6
a 168 169 5
a 169 168 5
a 169 184 4
a 184 169 4
a 169 170 8
a 170 169 8
a 170 185 8
a 185 170 8
a 170 171 1
a 171 170 1
a 171 186 10
a 186 171 10
a 171 172 10
a 172 171 10
a 172 187 10
a 187 172 10
a 172 173 8
a 173 172 8
a 173 188 2
a 188 173 2
a 173 174 5
a 174 173 5
a 174 189 3
a 189 174 3
a 174 175 2
a 175 174 2
a 175 190 10
a 190 175 10
a 175 176 9
a 176 175 9
a 176 191 8
a 191 176 8
a 176 177 1
a 177 176 1
a 177 192 9
a 192 177 9
a 177 178 5
a 178 177 5
a 178 193 2
a 193 178 2
a 178 179 7
a 179 178 7
a 179 194 6
a 194 179 6
a 179 180 4
a 180 179 4
a 180 195 10
a 195 180 10
a 181 196 7
a 196 181 7
a 181 182 6
a 182 181 6
a 182 183 3
a 183 182 3
a 183 198 1
a 198 183 1
a 183 184 6
a 184 183 6
a 184 199 2
a 199 184 2
a 184 185 5
a 185 184 5
a 185 200 8
a 200 185 8
a 185 186 10
a 186 185 10
a 186 201 10
a 201 186 10
a 186 187 4
a 187 186 4
a 187 202 2
a 202 187 2
a 187 188 5
a 188 187 5
a 188 203 5
a 203 188 5
a 188 189 5
a 189 188 5
a 189 204 1
a 204 189 1
a 189 190 9
a 190 189 9
a 190 205 4
a 205 190 4
a 190 191 7
a 191 190 7
a 191 206 6
a 206 191 6
a 191 192 6
a 192 191 6
a 192 207 3
a 207 192 3
a 192 193 8
a 193 192 8
a 193 194 7
a 194 193 7
a 194 209 4
a 209 194 4
a 194 195 4
a 195 194 4
a 195 210 2
a 210 195 2
a 196 211 1
a 211 196 1
a 198 213 5
a 213 198 5
a 198 199 8
a 199 198 8
a 199 214 3
a 214 199 3
a 199 200 9
a 200 199 9
a 200 215 10
a 215 200 10
a 200 201 1
a 201 200 1
a 201 216 4
a 216 201 4
a 201 202 9
a 202 201 9
a 202 217 8
a 217 202 8
a 202 203 8
a 203 202 8
a 203 218 7
a 218 203 7
a 203 204 4
a 204 203 4
a 204 219 5
a 219 204 5
a 204 205 1
a 205 204 1
a 205 220 4
a 220 205 4
a 205 206 7
a 206 205 7
a 206 207 1
a 207 206 1
a 207 222 1
a 222 207 1
a 209 224 2
a 224 209 2
a 209 210 6
a 210 209 6
a 210 225 8
a 225 210 8
a 211 212 5
a 212 211 5
a 212 213 3
a 213 212 3
a 213 214 6
a 214 213 6
a 214 215 6
a 215 214 6
a 215 216 10
a 216 215 10
a 216 217 3
a 217 216 3
a 217 218 4
a 218 217 4
a 218 219 3
a 219 218 3
a 219 220 6
a 220 219 6
a 222 223 2
a 223 222 2
a 223 224 2
a 224 223 2
a 224 225 2
a 225 224 2
